%chk=test
#p B3LYP/6-31G Opt

Un calculito

0 1
Be	0.0 0.0 0.0


